************************************************************************
file with basedata            : mm4_.bas
initial value random generator: 28884
************************************************************************
projects                      :  1
jobs (incl. supersource/sink ):  12
horizon                       :  89
RESOURCES
  - renewable                 :  2   R
  - nonrenewable              :  2   N
  - doubly constrained        :  0   D
************************************************************************
PROJECT INFORMATION:
pronr.  #jobs rel.date duedate tardcost  MPM-Time
    1     10      0       22        9       22
************************************************************************
PRECEDENCE RELATIONS:
jobnr.    #modes  #successors   successors
   0        1          3           1   2   3
   1        3          1          10
   2        3          2           4   5
   3        3          3           4   6   9
   4        3          1           7
   5        3          2           7   9
   6        3          1           8
   7        3          2           8  10
   8        3          1          11
   9        3          1          11
  10        3          1          11
  11        1          0        
************************************************************************
REQUESTS/DURATIONS:
jobnr. mode duration  R 1  R 2  R 3  R 4  E(W 1)  E(W 2)
------------------------------------------------------------------------
  0      1     0       0    0    0    0     0       0
  1      1     4       9    0    6    0    36      24
  2      1     6       0    1    0    9    12      54
  3      1     4       4    0    8    0    16      32
  4      1     7       0    6    8    0    42      56
  5      1     7       0    3    0    6    21      42
  6      1     2       5    0    8    0    10      16
  7      1     4       6    0    0    6    24      24
  8      1     2       7    0    0   10    14      20
  9      1     5       0    9    0    5    45      25
 10      1     5       9    0    8    0    45      40
 11      1     0       0    0    0    0     0       0
************************************************************************
RESOURCEAVAILABILITIES:
  R 1  R 2
   16   111
************************************************************************
RESOURCE LIMITS:
jobnr.  l(R 1)  u(R 1)  l(R 2)  u(R 2)
------------------------------------------------------------------------
  0        0       0       0       0
  1        5       9       3       6
  2        1       2       5       9
  3        2       4       4       8
  4        3       6       4       8
  5        2       3       3       6
  6        3       5       4       8
  7        3       6       3       6
  8        4       7       5      10
  9        5       9       3       5
 10        5       9       4       8
 11        0       0       0       0
************************************************************************
SCENARIOS:
------------------------------------------------------------------------
RESOURCE k = 1
s = 1: (0, 29, 12, 23, 35, 14, 11, 21, 11, 65, 42, 0)
s = 2: (0, 42, 13, 16, 35, 23, 11, 15, 10, 32, 28, 0)
s = 3: (0, 41, 19, 17, 45, 26, 7, 25, 9, 46, 39, 0)
s = 4: (0, 58, 10, 23, 28, 24, 9, 20, 20, 45, 82, 0)
s = 5: (0, 33, 8, 13, 35, 25, 10, 28, 19, 39, 50, 0)
s = 6: (0, 41, 21, 17, 35, 33, 18, 29, 9, 42, 26, 0)
s = 7: (0, 20, 16, 21, 41, 20, 16, 20, 22, 37, 66, 0)
s = 8: (0, 31, 11, 21, 50, 17, 10, 27, 15, 61, 54, 0)
s = 9: (0, 27, 9, 10, 25, 39, 7, 18, 19, 28, 60, 0)
s = 10: (0, 25, 8, 19, 45, 19, 11, 22, 14, 60, 57, 0)
s = 11: (0, 35, 15, 13, 42, 15, 6, 47, 12, 35, 30, 0)
s = 12: (0, 49, 14, 20, 40, 24, 9, 19, 17, 47, 33, 0)
s = 13: (0, 25, 11, 15, 61, 13, 15, 30, 19, 33, 43, 0)
s = 14: (0, 23, 13, 10, 27, 15, 13, 28, 13, 39, 46, 0)
s = 15: (0, 46, 17, 16, 32, 28, 10, 38, 16, 32, 38, 0)
s = 16: (0, 48, 8, 14, 36, 11, 8, 22, 12, 43, 76, 0)
s = 17: (0, 45, 15, 13, 44, 22, 7, 27, 14, 50, 54, 0)
s = 18: (0, 33, 9, 20, 33, 17, 7, 21, 13, 64, 36, 0)
s = 19: (0, 23, 10, 18, 40, 24, 12, 21, 19, 35, 50, 0)
s = 20: (0, 37, 15, 17, 30, 22, 7, 25, 13, 40, 38, 0)
s = 21: (0, 38, 9, 9, 53, 28, 7, 39, 14, 50, 42, 0)
s = 22: (0, 35, 8, 26, 53, 24, 10, 15, 15, 42, 40, 0)
s = 23: (0, 39, 14, 17, 35, 25, 11, 23, 13, 35, 27, 0)
s = 24: (0, 42, 9, 11, 35, 13, 15, 15, 11, 41, 29, 0)
s = 25: (0, 23, 12, 18, 39, 19, 8, 18, 19, 34, 74, 0)
s = 26: (0, 24, 8, 17, 38, 26, 7, 16, 20, 35, 46, 0)
s = 27: (0, 34, 13, 15, 44, 15, 13, 20, 16, 34, 71, 0)
s = 28: (0, 55, 10, 14, 40, 22, 12, 36, 11, 41, 51, 0)
s = 29: (0, 32, 10, 17, 47, 18, 10, 24, 19, 31, 52, 0)
s = 30: (0, 29, 18, 18, 71, 30, 9, 18, 17, 41, 57, 0)
s = 31: (0, 33, 8, 10, 23, 31, 10, 22, 20, 81, 58, 0)
s = 32: (0, 39, 8, 15, 39, 20, 11, 29, 12, 38, 37, 0)
s = 33: (0, 46, 16, 15, 46, 13, 10, 18, 10, 33, 55, 0)
s = 34: (0, 29, 22, 19, 51, 21, 6, 30, 12, 58, 43, 0)
s = 35: (0, 58, 10, 18, 43, 28, 9, 21, 11, 62, 38, 0)
s = 36: (0, 30, 14, 13, 24, 13, 9, 18, 21, 29, 57, 0)
s = 37: (0, 28, 8, 15, 50, 27, 11, 34, 17, 46, 30, 0)
s = 38: (0, 26, 17, 17, 45, 27, 10, 20, 20, 75, 35, 0)
s = 39: (0, 40, 8, 23, 29, 32, 11, 23, 18, 34, 58, 0)
s = 40: (0, 19, 13, 15, 44, 38, 8, 33, 19, 48, 35, 0)
s = 41: (0, 38, 8, 22, 50, 25, 8, 20, 18, 53, 26, 0)
s = 42: (0, 39, 13, 13, 57, 27, 11, 27, 11, 57, 63, 0)
s = 43: (0, 31, 11, 14, 43, 20, 7, 23, 13, 32, 27, 0)
s = 44: (0, 39, 11, 17, 36, 33, 12, 20, 11, 33, 26, 0)
s = 45: (0, 49, 12, 11, 26, 14, 9, 18, 11, 26, 42, 0)
s = 46: (0, 36, 9, 20, 38, 20, 17, 26, 9, 41, 41, 0)
s = 47: (0, 28, 13, 31, 61, 22, 10, 27, 10, 63, 27, 0)
s = 48: (0, 31, 18, 17, 49, 24, 8, 22, 13, 47, 30, 0)
s = 49: (0, 28, 9, 10, 43, 21, 8, 26, 8, 51, 45, 0)
s = 50: (0, 36, 12, 13, 39, 25, 13, 30, 17, 31, 59, 0)
s = 51: (0, 52, 11, 20, 42, 16, 14, 34, 22, 31, 51, 0)
s = 52: (0, 28, 11, 18, 33, 12, 9, 25, 15, 47, 62, 0)
s = 53: (0, 39, 12, 28, 32, 15, 8, 28, 10, 27, 30, 0)
s = 54: (0, 34, 13, 11, 25, 21, 13, 32, 13, 50, 29, 0)
s = 55: (0, 31, 13, 21, 67, 12, 12, 37, 9, 39, 43, 0)
s = 56: (0, 46, 11, 12, 37, 28, 6, 30, 8, 71, 70, 0)
s = 57: (0, 42, 9, 22, 67, 25, 13, 31, 20, 65, 40, 0)
s = 58: (0, 40, 17, 22, 52, 26, 11, 15, 10, 46, 58, 0)
s = 59: (0, 36, 11, 18, 47, 22, 9, 33, 21, 39, 50, 0)
s = 60: (0, 54, 16, 16, 44, 25, 14, 35, 11, 35, 25, 0)
s = 61: (0, 32, 11, 23, 40, 16, 9, 15, 18, 25, 61, 0)
s = 62: (0, 41, 18, 13, 35, 21, 8, 30, 14, 55, 45, 0)
s = 63: (0, 30, 14, 25, 41, 33, 9, 31, 12, 38, 61, 0)
s = 64: (0, 36, 13, 23, 31, 22, 13, 28, 11, 39, 47, 0)
s = 65: (0, 34, 14, 14, 38, 18, 8, 33, 17, 44, 38, 0)
s = 66: (0, 32, 15, 15, 39, 34, 15, 19, 9, 63, 35, 0)
s = 67: (0, 26, 16, 16, 50, 26, 13, 26, 10, 67, 49, 0)
s = 68: (0, 39, 16, 23, 39, 14, 9, 24, 19, 39, 40, 0)
s = 69: (0, 37, 7, 12, 56, 21, 6, 18, 11, 35, 34, 0)
s = 70: (0, 34, 14, 16, 36, 21, 9, 40, 13, 27, 40, 0)
s = 71: (0, 24, 17, 13, 33, 41, 9, 17, 15, 44, 60, 0)
s = 72: (0, 38, 14, 15, 24, 15, 11, 30, 13, 73, 30, 0)
s = 73: (0, 35, 14, 15, 41, 14, 9, 36, 17, 53, 70, 0)
s = 74: (0, 36, 9, 13, 63, 24, 7, 21, 12, 44, 31, 0)
s = 75: (0, 42, 17, 12, 57, 25, 12, 21, 15, 44, 46, 0)
s = 76: (0, 40, 10, 18, 46, 24, 6, 19, 11, 47, 35, 0)
s = 77: (0, 23, 11, 14, 54, 21, 7, 25, 16, 45, 40, 0)
s = 78: (0, 20, 15, 14, 39, 15, 13, 16, 10, 47, 38, 0)
s = 79: (0, 41, 18, 10, 42, 16, 11, 29, 14, 46, 45, 0)
s = 80: (0, 27, 9, 12, 52, 30, 11, 16, 20, 36, 37, 0)
s = 81: (0, 61, 18, 14, 54, 31, 13, 17, 8, 44, 44, 0)
s = 82: (0, 22, 11, 13, 73, 25, 18, 38, 11, 35, 29, 0)
s = 83: (0, 54, 15, 18, 41, 25, 9, 32, 11, 37, 63, 0)
s = 84: (0, 22, 15, 23, 38, 32, 11, 18, 12, 66, 36, 0)
s = 85: (0, 34, 14, 19, 39, 24, 7, 27, 17, 42, 63, 0)
s = 86: (0, 31, 11, 29, 55, 37, 10, 20, 14, 44, 42, 0)
s = 87: (0, 24, 15, 12, 38, 13, 14, 25, 19, 48, 34, 0)
s = 88: (0, 33, 13, 12, 42, 26, 8, 17, 18, 33, 32, 0)
s = 89: (0, 36, 12, 16, 26, 13, 12, 20, 13, 43, 43, 0)
s = 90: (0, 39, 10, 14, 32, 19, 6, 23, 20, 58, 51, 0)
s = 91: (0, 45, 9, 13, 37, 20, 13, 19, 14, 41, 29, 0)
s = 92: (0, 41, 15, 12, 50, 28, 9, 22, 16, 31, 62, 0)
s = 93: (0, 41, 13, 18, 35, 24, 14, 29, 10, 46, 27, 0)
s = 94: (0, 35, 17, 11, 26, 35, 19, 22, 12, 32, 43, 0)
s = 95: (0, 39, 22, 15, 28, 27, 7, 18, 18, 58, 36, 0)
s = 96: (0, 30, 15, 17, 48, 29, 8, 32, 12, 44, 47, 0)
s = 97: (0, 27, 15, 24, 52, 15, 10, 17, 17, 33, 52, 0)
s = 98: (0, 31, 10, 19, 31, 17, 9, 24, 16, 52, 36, 0)
s = 99: (0, 46, 14, 11, 38, 17, 9, 28, 10, 46, 65, 0)
s = 100: (0, 31, 7, 11, 31, 15, 8, 18, 17, 40, 50, 0)
s = 101: (0, 54, 13, 13, 26, 12, 8, 14, 16, 32, 54, 0)
s = 102: (0, 52, 10, 19, 37, 23, 9, 20, 11, 36, 72, 0)
s = 103: (0, 41, 15, 16, 30, 18, 9, 20, 24, 49, 28, 0)
s = 104: (0, 33, 11, 18, 37, 19, 13, 25, 9, 28, 35, 0)
s = 105: (0, 46, 12, 15, 46, 20, 9, 42, 15, 36, 43, 0)
s = 106: (0, 36, 19, 10, 35, 25, 8, 19, 12, 41, 57, 0)
s = 107: (0, 58, 9, 16, 63, 15, 11, 31, 9, 60, 42, 0)
s = 108: (0, 42, 14, 15, 25, 14, 8, 24, 20, 62, 67, 0)
s = 109: (0, 32, 10, 17, 62, 17, 13, 18, 11, 49, 39, 0)
s = 110: (0, 38, 23, 25, 43, 18, 14, 40, 13, 45, 43, 0)
s = 111: (0, 44, 11, 22, 41, 17, 7, 30, 12, 34, 85, 0)
s = 112: (0, 53, 13, 14, 53, 13, 7, 31, 18, 47, 47, 0)
s = 113: (0, 34, 10, 20, 38, 21, 9, 20, 10, 67, 45, 0)
s = 114: (0, 28, 18, 17, 33, 15, 20, 30, 14, 39, 64, 0)
s = 115: (0, 37, 18, 14, 23, 21, 13, 20, 9, 32, 40, 0)
s = 116: (0, 32, 17, 28, 34, 30, 12, 18, 19, 38, 57, 0)
s = 117: (0, 40, 14, 12, 37, 27, 11, 22, 14, 59, 62, 0)
s = 118: (0, 36, 19, 13, 51, 22, 9, 28, 12, 63, 62, 0)
s = 119: (0, 33, 10, 12, 33, 13, 9, 25, 9, 58, 35, 0)
s = 120: (0, 46, 11, 17, 40, 17, 11, 20, 10, 33, 76, 0)
s = 121: (0, 29, 21, 26, 37, 22, 6, 30, 21, 56, 43, 0)
s = 122: (0, 42, 8, 15, 35, 19, 14, 22, 12, 36, 47, 0)
s = 123: (0, 32, 11, 13, 29, 22, 6, 20, 10, 30, 39, 0)
s = 124: (0, 22, 13, 12, 41, 21, 9, 24, 11, 30, 30, 0)
s = 125: (0, 43, 9, 14, 34, 18, 11, 17, 16, 32, 42, 0)
s = 126: (0, 35, 16, 11, 33, 27, 17, 13, 11, 27, 38, 0)
s = 127: (0, 39, 17, 15, 70, 25, 10, 33, 9, 33, 39, 0)
s = 128: (0, 36, 14, 17, 39, 16, 7, 27, 18, 37, 35, 0)
s = 129: (0, 50, 13, 10, 35, 23, 11, 27, 13, 30, 62, 0)
s = 130: (0, 39, 11, 15, 30, 15, 10, 23, 11, 63, 72, 0)
s = 131: (0, 25, 8, 20, 53, 16, 9, 20, 16, 41, 64, 0)
s = 132: (0, 46, 13, 21, 36, 32, 12, 34, 16, 52, 68, 0)
s = 133: (0, 30, 10, 13, 36, 14, 10, 32, 12, 41, 63, 0)
s = 134: (0, 31, 10, 20, 38, 31, 9, 21, 14, 61, 32, 0)
s = 135: (0, 32, 9, 20, 61, 19, 7, 32, 15, 55, 41, 0)
s = 136: (0, 38, 19, 17, 55, 17, 10, 30, 17, 43, 39, 0)
s = 137: (0, 43, 17, 24, 25, 17, 12, 27, 15, 51, 48, 0)
s = 138: (0, 31, 13, 14, 45, 17, 7, 19, 15, 60, 53, 0)
s = 139: (0, 34, 11, 15, 26, 22, 10, 17, 12, 57, 30, 0)
s = 140: (0, 33, 8, 12, 42, 30, 9, 43, 8, 46, 51, 0)
s = 141: (0, 35, 17, 10, 52, 26, 8, 24, 9, 44, 34, 0)
s = 142: (0, 56, 16, 14, 50, 16, 10, 38, 14, 41, 68, 0)
s = 143: (0, 29, 13, 17, 46, 16, 13, 35, 10, 75, 32, 0)
s = 144: (0, 22, 13, 12, 62, 31, 9, 26, 19, 44, 59, 0)
s = 145: (0, 32, 13, 14, 43, 21, 9, 17, 9, 35, 53, 0)
s = 146: (0, 31, 11, 14, 33, 20, 8, 22, 15, 39, 42, 0)
s = 147: (0, 40, 11, 17, 49, 30, 8, 21, 14, 38, 41, 0)
s = 148: (0, 22, 15, 15, 74, 22, 11, 17, 14, 35, 32, 0)
s = 149: (0, 24, 16, 14, 39, 20, 15, 25, 19, 46, 58, 0)
s = 150: (0, 64, 17, 13, 50, 18, 9, 30, 14, 72, 47, 0)
s = 151: (0, 39, 10, 16, 36, 36, 20, 26, 22, 40, 62, 0)
s = 152: (0, 23, 9, 13, 58, 27, 10, 17, 10, 36, 34, 0)
s = 153: (0, 47, 10, 18, 24, 20, 8, 24, 16, 53, 33, 0)
s = 154: (0, 32, 8, 26, 24, 25, 10, 17, 14, 44, 49, 0)
s = 155: (0, 61, 11, 24, 62, 21, 9, 31, 15, 77, 33, 0)
s = 156: (0, 34, 11, 11, 41, 16, 13, 20, 18, 36, 66, 0)
s = 157: (0, 23, 12, 12, 26, 19, 9, 43, 17, 49, 26, 0)
s = 158: (0, 27, 7, 15, 38, 21, 9, 18, 12, 38, 37, 0)
s = 159: (0, 36, 11, 12, 50, 28, 7, 26, 9, 53, 49, 0)
s = 160: (0, 37, 14, 15, 52, 21, 15, 26, 11, 34, 41, 0)
s = 161: (0, 32, 13, 25, 29, 19, 14, 24, 16, 34, 50, 0)
s = 162: (0, 26, 7, 16, 29, 14, 8, 27, 18, 44, 69, 0)
s = 163: (0, 27, 18, 16, 52, 17, 12, 24, 11, 38, 43, 0)
s = 164: (0, 26, 13, 14, 36, 18, 6, 37, 15, 38, 56, 0)
s = 165: (0, 34, 16, 21, 41, 35, 11, 30, 19, 64, 76, 0)
s = 166: (0, 26, 9, 19, 51, 15, 7, 23, 10, 50, 38, 0)
s = 167: (0, 47, 8, 12, 34, 22, 9, 25, 15, 57, 39, 0)
s = 168: (0, 31, 15, 19, 80, 12, 13, 23, 22, 54, 53, 0)
s = 169: (0, 24, 17, 15, 45, 17, 16, 35, 12, 59, 35, 0)
s = 170: (0, 40, 12, 10, 28, 21, 9, 30, 14, 57, 64, 0)
s = 171: (0, 23, 13, 20, 55, 22, 7, 17, 15, 35, 34, 0)
s = 172: (0, 43, 13, 21, 42, 13, 16, 32, 20, 38, 40, 0)
s = 173: (0, 55, 10, 24, 27, 26, 11, 18, 12, 35, 52, 0)
s = 174: (0, 37, 9, 14, 39, 34, 11, 29, 17, 59, 35, 0)
s = 175: (0, 39, 14, 17, 48, 28, 13, 20, 10, 48, 29, 0)
s = 176: (0, 41, 11, 18, 34, 23, 11, 22, 9, 54, 47, 0)
s = 177: (0, 28, 14, 12, 34, 25, 9, 22, 10, 59, 27, 0)
s = 178: (0, 36, 8, 18, 29, 16, 11, 28, 12, 28, 37, 0)
s = 179: (0, 34, 10, 17, 48, 29, 17, 23, 17, 40, 46, 0)
s = 180: (0, 38, 10, 11, 51, 15, 6, 28, 15, 29, 39, 0)
s = 181: (0, 42, 14, 14, 27, 19, 15, 31, 18, 36, 45, 0)
s = 182: (0, 22, 14, 13, 42, 12, 8, 23, 12, 67, 56, 0)
s = 183: (0, 48, 13, 14, 58, 15, 8, 28, 15, 29, 32, 0)
s = 184: (0, 60, 16, 18, 60, 14, 9, 20, 18, 38, 67, 0)
s = 185: (0, 58, 10, 10, 62, 24, 9, 35, 12, 40, 64, 0)
s = 186: (0, 25, 10, 17, 33, 12, 10, 15, 17, 37, 37, 0)
s = 187: (0, 32, 9, 11, 53, 24, 13, 14, 11, 33, 34, 0)
s = 188: (0, 33, 17, 17, 25, 18, 11, 24, 12, 65, 31, 0)
s = 189: (0, 44, 16, 15, 39, 22, 10, 25, 11, 36, 70, 0)
s = 190: (0, 44, 12, 16, 48, 19, 6, 27, 16, 25, 35, 0)
s = 191: (0, 26, 11, 12, 53, 34, 14, 13, 18, 36, 57, 0)
s = 192: (0, 27, 11, 17, 34, 19, 12, 16, 19, 71, 31, 0)
s = 193: (0, 30, 16, 14, 43, 21, 6, 19, 12, 42, 61, 0)
s = 194: (0, 25, 10, 13, 42, 23, 10, 18, 11, 37, 44, 0)
s = 195: (0, 24, 13, 14, 68, 21, 12, 15, 16, 29, 48, 0)
s = 196: (0, 38, 17, 15, 51, 22, 11, 32, 17, 46, 69, 0)
s = 197: (0, 49, 13, 17, 45, 19, 13, 28, 17, 59, 34, 0)
s = 198: (0, 28, 17, 21, 34, 24, 17, 21, 16, 59, 50, 0)
s = 199: (0, 56, 10, 18, 41, 14, 12, 20, 16, 43, 26, 0)
s = 200: (0, 36, 10, 16, 53, 21, 9, 32, 18, 39, 57, 0)
------------------------------------------------------------------------
RESOURCE k = 2
s = 1: (0, 19, 51, 46, 46, 27, 17, 21, 15, 36, 37, 0)
s = 2: (0, 28, 57, 31, 46, 45, 17, 15, 14, 18, 25, 0)
s = 3: (0, 27, 84, 34, 59, 52, 10, 25, 13, 26, 35, 0)
s = 4: (0, 39, 42, 45, 37, 48, 13, 20, 28, 25, 73, 0)
s = 5: (0, 22, 34, 25, 47, 50, 16, 28, 27, 22, 44, 0)
s = 6: (0, 28, 92, 33, 46, 66, 28, 29, 13, 24, 23, 0)
s = 7: (0, 14, 70, 42, 55, 40, 25, 20, 31, 21, 58, 0)
s = 8: (0, 21, 47, 42, 67, 33, 15, 27, 22, 34, 48, 0)
s = 9: (0, 18, 41, 20, 33, 78, 11, 18, 27, 16, 54, 0)
s = 10: (0, 17, 33, 37, 60, 37, 17, 22, 19, 34, 51, 0)
s = 11: (0, 24, 65, 26, 55, 29, 9, 47, 17, 20, 27, 0)
s = 12: (0, 33, 63, 40, 53, 48, 15, 19, 25, 26, 29, 0)
s = 13: (0, 17, 47, 29, 81, 26, 24, 30, 27, 19, 38, 0)
s = 14: (0, 16, 55, 19, 36, 30, 20, 28, 19, 22, 41, 0)
s = 15: (0, 31, 73, 31, 43, 56, 16, 38, 22, 18, 34, 0)
s = 16: (0, 32, 35, 27, 48, 22, 12, 22, 17, 24, 68, 0)
s = 17: (0, 30, 64, 26, 59, 44, 10, 27, 20, 28, 48, 0)
s = 18: (0, 22, 38, 39, 44, 34, 12, 21, 18, 36, 32, 0)
s = 19: (0, 15, 45, 36, 53, 47, 18, 21, 27, 20, 45, 0)
s = 20: (0, 25, 67, 34, 40, 44, 11, 25, 18, 22, 34, 0)
s = 21: (0, 25, 40, 18, 70, 56, 11, 39, 20, 28, 38, 0)
s = 22: (0, 23, 33, 51, 71, 48, 16, 15, 21, 23, 36, 0)
s = 23: (0, 26, 63, 34, 47, 49, 18, 23, 18, 20, 24, 0)
s = 24: (0, 28, 38, 21, 46, 26, 23, 15, 15, 23, 26, 0)
s = 25: (0, 16, 54, 35, 51, 37, 12, 18, 27, 19, 66, 0)
s = 26: (0, 16, 34, 33, 51, 52, 11, 16, 28, 20, 41, 0)
s = 27: (0, 23, 55, 29, 58, 29, 20, 20, 23, 19, 63, 0)
s = 28: (0, 37, 43, 27, 53, 43, 20, 36, 16, 23, 46, 0)
s = 29: (0, 22, 44, 33, 63, 35, 15, 24, 26, 18, 47, 0)
s = 30: (0, 19, 80, 35, 94, 60, 14, 18, 24, 23, 51, 0)
s = 31: (0, 22, 35, 19, 31, 61, 15, 22, 28, 45, 52, 0)
s = 32: (0, 26, 36, 29, 52, 40, 17, 29, 17, 21, 33, 0)
s = 33: (0, 31, 68, 29, 62, 26, 16, 18, 14, 18, 49, 0)
s = 34: (0, 19, 97, 38, 68, 42, 9, 30, 17, 33, 38, 0)
s = 35: (0, 39, 44, 35, 58, 55, 14, 21, 16, 34, 34, 0)
s = 36: (0, 20, 59, 25, 32, 25, 14, 18, 30, 16, 50, 0)
s = 37: (0, 19, 34, 29, 67, 54, 17, 34, 24, 26, 27, 0)
s = 38: (0, 18, 75, 33, 60, 53, 15, 20, 28, 42, 31, 0)
s = 39: (0, 27, 33, 45, 39, 64, 17, 23, 26, 19, 52, 0)
s = 40: (0, 13, 55, 30, 59, 76, 12, 33, 27, 27, 31, 0)
s = 41: (0, 25, 36, 44, 67, 50, 13, 20, 25, 30, 24, 0)
s = 42: (0, 26, 57, 26, 76, 53, 17, 27, 15, 32, 56, 0)
s = 43: (0, 21, 48, 28, 57, 40, 10, 23, 19, 18, 24, 0)
s = 44: (0, 26, 46, 34, 47, 65, 19, 20, 15, 19, 23, 0)
s = 45: (0, 33, 50, 21, 35, 28, 15, 18, 16, 15, 37, 0)
s = 46: (0, 24, 37, 39, 51, 40, 27, 26, 13, 23, 36, 0)
s = 47: (0, 19, 56, 61, 82, 44, 16, 27, 14, 35, 24, 0)
s = 48: (0, 21, 78, 33, 65, 48, 12, 22, 18, 26, 27, 0)
s = 49: (0, 19, 38, 20, 57, 41, 13, 26, 12, 29, 40, 0)
s = 50: (0, 24, 53, 25, 51, 50, 20, 30, 24, 18, 53, 0)
s = 51: (0, 35, 46, 39, 55, 31, 23, 34, 31, 17, 45, 0)
s = 52: (0, 19, 46, 36, 44, 23, 14, 25, 22, 26, 55, 0)
s = 53: (0, 26, 51, 56, 43, 29, 13, 28, 15, 15, 27, 0)
s = 54: (0, 23, 56, 22, 34, 41, 20, 32, 19, 28, 26, 0)
s = 55: (0, 21, 56, 41, 89, 24, 19, 37, 12, 22, 39, 0)
s = 56: (0, 31, 46, 24, 49, 56, 10, 30, 12, 40, 62, 0)
s = 57: (0, 28, 40, 43, 89, 50, 21, 31, 28, 36, 36, 0)
s = 58: (0, 27, 74, 44, 69, 52, 17, 15, 13, 26, 52, 0)
s = 59: (0, 24, 48, 35, 63, 43, 14, 33, 30, 22, 44, 0)
s = 60: (0, 36, 71, 31, 59, 50, 21, 35, 15, 20, 22, 0)
s = 61: (0, 21, 50, 45, 54, 31, 14, 15, 25, 14, 54, 0)
s = 62: (0, 27, 81, 25, 47, 41, 12, 30, 19, 31, 40, 0)
s = 63: (0, 20, 62, 49, 54, 65, 15, 31, 16, 21, 54, 0)
s = 64: (0, 24, 59, 46, 41, 44, 20, 28, 16, 22, 42, 0)
s = 65: (0, 23, 61, 28, 51, 36, 12, 33, 24, 24, 34, 0)
s = 66: (0, 21, 66, 30, 52, 68, 23, 19, 13, 35, 31, 0)
s = 67: (0, 17, 71, 32, 66, 52, 20, 26, 15, 37, 44, 0)
s = 68: (0, 26, 71, 46, 52, 27, 14, 24, 27, 22, 35, 0)
s = 69: (0, 25, 31, 23, 74, 42, 9, 18, 15, 20, 30, 0)
s = 70: (0, 23, 61, 32, 48, 42, 13, 40, 19, 15, 35, 0)
s = 71: (0, 16, 74, 26, 44, 81, 15, 17, 21, 25, 53, 0)
s = 72: (0, 26, 61, 29, 31, 30, 17, 30, 18, 41, 27, 0)
s = 73: (0, 23, 59, 30, 55, 28, 14, 36, 25, 30, 62, 0)
s = 74: (0, 24, 38, 26, 84, 47, 10, 21, 17, 25, 27, 0)
s = 75: (0, 28, 75, 24, 76, 50, 19, 21, 21, 25, 41, 0)
s = 76: (0, 27, 44, 36, 61, 47, 9, 19, 16, 26, 32, 0)
s = 77: (0, 15, 49, 27, 72, 42, 10, 25, 23, 25, 36, 0)
s = 78: (0, 14, 66, 28, 52, 30, 21, 16, 14, 26, 33, 0)
s = 79: (0, 28, 79, 19, 56, 32, 18, 29, 20, 26, 40, 0)
s = 80: (0, 18, 39, 24, 69, 60, 17, 16, 28, 20, 33, 0)
s = 81: (0, 41, 80, 27, 72, 62, 20, 17, 11, 25, 39, 0)
s = 82: (0, 15, 49, 25, 98, 49, 28, 38, 16, 20, 26, 0)
s = 83: (0, 36, 67, 35, 54, 50, 15, 32, 16, 21, 56, 0)
s = 84: (0, 15, 67, 45, 50, 64, 17, 18, 17, 37, 32, 0)
s = 85: (0, 23, 60, 38, 51, 47, 11, 27, 24, 23, 56, 0)
s = 86: (0, 21, 49, 58, 74, 74, 15, 20, 20, 24, 37, 0)
s = 87: (0, 16, 68, 24, 50, 25, 23, 25, 28, 27, 31, 0)
s = 88: (0, 22, 55, 24, 56, 51, 12, 17, 26, 19, 29, 0)
s = 89: (0, 24, 51, 32, 34, 26, 19, 20, 18, 24, 38, 0)
s = 90: (0, 26, 43, 28, 43, 37, 9, 23, 29, 33, 46, 0)
s = 91: (0, 30, 41, 25, 50, 40, 21, 19, 20, 23, 26, 0)
s = 92: (0, 27, 66, 23, 66, 55, 14, 22, 23, 17, 55, 0)
s = 93: (0, 28, 58, 35, 46, 47, 22, 29, 14, 26, 24, 0)
s = 94: (0, 23, 74, 21, 34, 70, 30, 22, 17, 18, 39, 0)
s = 95: (0, 26, 99, 30, 37, 54, 11, 18, 26, 32, 32, 0)
s = 96: (0, 20, 64, 33, 64, 58, 13, 32, 18, 25, 42, 0)
s = 97: (0, 18, 64, 48, 69, 30, 16, 17, 25, 18, 46, 0)
s = 98: (0, 21, 42, 38, 41, 33, 14, 24, 23, 29, 32, 0)
s = 99: (0, 31, 63, 21, 50, 33, 14, 28, 15, 26, 58, 0)
s = 100: (0, 21, 28, 22, 41, 29, 12, 18, 24, 23, 44, 0)
s = 101: (0, 36, 55, 25, 35, 23, 12, 14, 23, 18, 48, 0)
s = 102: (0, 35, 43, 38, 49, 46, 15, 20, 16, 20, 64, 0)
s = 103: (0, 27, 64, 32, 40, 36, 14, 20, 35, 28, 25, 0)
s = 104: (0, 22, 49, 36, 50, 38, 20, 25, 13, 16, 31, 0)
s = 105: (0, 31, 50, 30, 62, 39, 14, 42, 22, 20, 38, 0)
s = 106: (0, 24, 85, 19, 46, 50, 13, 19, 17, 23, 50, 0)
s = 107: (0, 39, 40, 31, 84, 30, 17, 31, 12, 33, 37, 0)
s = 108: (0, 28, 61, 30, 34, 27, 12, 24, 28, 35, 60, 0)
s = 109: (0, 21, 42, 34, 83, 33, 20, 18, 16, 27, 34, 0)
s = 110: (0, 26, 101, 49, 57, 35, 22, 40, 19, 25, 38, 0)
s = 111: (0, 29, 48, 43, 55, 33, 11, 30, 17, 19, 76, 0)
s = 112: (0, 36, 56, 27, 71, 25, 12, 31, 26, 27, 42, 0)
s = 113: (0, 23, 43, 39, 50, 41, 15, 20, 13, 38, 40, 0)
s = 114: (0, 19, 78, 34, 44, 30, 32, 30, 20, 22, 57, 0)
s = 115: (0, 25, 81, 27, 30, 41, 20, 20, 13, 18, 36, 0)
s = 116: (0, 21, 74, 55, 45, 59, 18, 18, 28, 21, 51, 0)
s = 117: (0, 27, 63, 23, 50, 54, 17, 22, 20, 33, 55, 0)
s = 118: (0, 24, 83, 25, 68, 44, 14, 28, 16, 35, 55, 0)
s = 119: (0, 22, 43, 23, 44, 25, 14, 25, 12, 32, 32, 0)
s = 120: (0, 31, 47, 34, 54, 34, 17, 20, 15, 19, 67, 0)
s = 121: (0, 20, 94, 52, 49, 43, 10, 30, 30, 31, 38, 0)
s = 122: (0, 28, 36, 30, 47, 37, 22, 22, 16, 20, 41, 0)
s = 123: (0, 21, 46, 26, 39, 44, 9, 20, 14, 17, 35, 0)
s = 124: (0, 15, 55, 24, 54, 41, 14, 24, 16, 17, 27, 0)
s = 125: (0, 29, 38, 27, 46, 36, 17, 17, 23, 18, 38, 0)
s = 126: (0, 24, 70, 22, 44, 53, 27, 13, 15, 15, 34, 0)
s = 127: (0, 26, 73, 29, 94, 50, 16, 33, 12, 19, 35, 0)
s = 128: (0, 24, 63, 33, 51, 32, 10, 27, 26, 21, 31, 0)
s = 129: (0, 33, 55, 19, 47, 46, 17, 27, 19, 17, 56, 0)
s = 130: (0, 26, 47, 29, 40, 29, 16, 23, 16, 35, 64, 0)
s = 131: (0, 17, 33, 39, 71, 32, 15, 20, 22, 23, 57, 0)
s = 132: (0, 31, 58, 41, 48, 64, 19, 34, 22, 29, 60, 0)
s = 133: (0, 20, 44, 25, 47, 27, 15, 32, 17, 23, 56, 0)
s = 134: (0, 21, 44, 40, 51, 62, 13, 21, 19, 34, 29, 0)
s = 135: (0, 21, 40, 39, 81, 37, 11, 32, 22, 31, 37, 0)
s = 136: (0, 26, 82, 34, 74, 34, 16, 30, 25, 24, 35, 0)
s = 137: (0, 29, 75, 47, 34, 33, 19, 27, 21, 29, 43, 0)
s = 138: (0, 21, 56, 27, 59, 34, 11, 19, 21, 34, 47, 0)
s = 139: (0, 23, 47, 30, 34, 44, 16, 17, 16, 32, 27, 0)
s = 140: (0, 22, 34, 24, 56, 59, 15, 43, 11, 26, 45, 0)
s = 141: (0, 24, 77, 20, 69, 52, 12, 24, 12, 25, 31, 0)
s = 142: (0, 37, 72, 28, 66, 31, 15, 38, 19, 23, 60, 0)
s = 143: (0, 20, 56, 33, 61, 32, 21, 35, 14, 42, 29, 0)
s = 144: (0, 15, 58, 23, 82, 62, 15, 26, 27, 25, 52, 0)
s = 145: (0, 22, 58, 27, 57, 41, 14, 17, 13, 20, 47, 0)
s = 146: (0, 21, 46, 28, 44, 40, 13, 22, 22, 22, 37, 0)
s = 147: (0, 27, 47, 33, 66, 60, 13, 21, 20, 21, 37, 0)
s = 148: (0, 15, 65, 29, 99, 43, 18, 17, 20, 20, 29, 0)
s = 149: (0, 16, 69, 27, 52, 39, 24, 25, 27, 26, 52, 0)
s = 150: (0, 43, 73, 26, 67, 35, 14, 30, 20, 40, 42, 0)
s = 151: (0, 26, 42, 31, 47, 72, 32, 26, 31, 23, 55, 0)
s = 152: (0, 15, 39, 26, 77, 54, 16, 17, 14, 20, 30, 0)
s = 153: (0, 31, 44, 35, 32, 40, 13, 24, 23, 30, 30, 0)
s = 154: (0, 21, 35, 51, 32, 50, 16, 17, 20, 25, 44, 0)
s = 155: (0, 41, 47, 48, 83, 42, 14, 31, 21, 43, 30, 0)
s = 156: (0, 23, 47, 22, 54, 31, 20, 20, 25, 20, 59, 0)
s = 157: (0, 15, 52, 24, 34, 37, 14, 43, 24, 28, 24, 0)
s = 158: (0, 18, 31, 29, 50, 42, 14, 18, 17, 21, 33, 0)
s = 159: (0, 24, 46, 23, 67, 55, 11, 26, 13, 30, 44, 0)
s = 160: (0, 25, 63, 29, 69, 42, 23, 26, 15, 19, 36, 0)
s = 161: (0, 22, 57, 49, 39, 38, 22, 24, 22, 19, 44, 0)
s = 162: (0, 18, 31, 32, 39, 27, 13, 27, 25, 25, 61, 0)
s = 163: (0, 18, 78, 32, 69, 34, 19, 24, 16, 22, 38, 0)
s = 164: (0, 18, 55, 27, 48, 35, 10, 37, 22, 22, 49, 0)
s = 165: (0, 23, 71, 41, 54, 69, 17, 30, 27, 36, 68, 0)
s = 166: (0, 17, 38, 37, 68, 29, 11, 23, 15, 28, 34, 0)
s = 167: (0, 32, 33, 23, 45, 43, 14, 25, 22, 32, 35, 0)
s = 168: (0, 21, 64, 38, 107, 23, 21, 23, 31, 30, 47, 0)
s = 169: (0, 16, 75, 30, 59, 33, 25, 35, 18, 33, 31, 0)
s = 170: (0, 27, 53, 20, 37, 42, 14, 30, 20, 32, 57, 0)
s = 171: (0, 16, 56, 40, 73, 44, 11, 17, 22, 20, 31, 0)
s = 172: (0, 29, 57, 42, 56, 26, 26, 32, 29, 22, 35, 0)
s = 173: (0, 37, 45, 48, 36, 51, 18, 18, 18, 20, 46, 0)
s = 174: (0, 25, 40, 27, 51, 68, 18, 29, 24, 33, 31, 0)
s = 175: (0, 26, 61, 33, 64, 56, 21, 20, 14, 27, 26, 0)
s = 176: (0, 28, 46, 36, 46, 46, 17, 22, 13, 30, 42, 0)
s = 177: (0, 19, 59, 23, 45, 49, 13, 22, 14, 33, 24, 0)
s = 178: (0, 24, 36, 35, 38, 32, 17, 28, 16, 16, 33, 0)
s = 179: (0, 23, 43, 33, 64, 58, 27, 23, 25, 22, 41, 0)
s = 180: (0, 25, 41, 21, 68, 30, 10, 28, 22, 17, 35, 0)
s = 181: (0, 28, 59, 27, 35, 37, 24, 31, 26, 20, 40, 0)
s = 182: (0, 15, 59, 25, 55, 24, 13, 23, 16, 37, 50, 0)
s = 183: (0, 32, 55, 28, 77, 29, 12, 28, 21, 16, 29, 0)
s = 184: (0, 40, 70, 36, 80, 28, 15, 20, 25, 21, 59, 0)
s = 185: (0, 39, 42, 19, 82, 47, 14, 35, 17, 22, 57, 0)
s = 186: (0, 17, 42, 33, 44, 23, 15, 15, 24, 21, 33, 0)
s = 187: (0, 22, 37, 22, 70, 47, 20, 14, 16, 19, 30, 0)
s = 188: (0, 22, 76, 33, 33, 35, 18, 24, 17, 36, 28, 0)
s = 189: (0, 29, 70, 29, 51, 43, 15, 25, 16, 20, 62, 0)
s = 190: (0, 30, 53, 32, 64, 37, 9, 27, 23, 14, 31, 0)
s = 191: (0, 18, 46, 23, 70, 68, 23, 13, 25, 20, 51, 0)
s = 192: (0, 18, 48, 34, 45, 38, 19, 16, 27, 40, 27, 0)
s = 193: (0, 20, 70, 28, 57, 41, 10, 19, 16, 24, 55, 0)
s = 194: (0, 17, 43, 25, 56, 46, 16, 18, 15, 21, 39, 0)
s = 195: (0, 16, 58, 28, 90, 41, 19, 15, 23, 16, 43, 0)
s = 196: (0, 25, 74, 30, 68, 44, 17, 32, 24, 26, 61, 0)
s = 197: (0, 33, 55, 33, 60, 38, 20, 28, 24, 33, 30, 0)
s = 198: (0, 19, 77, 41, 46, 48, 27, 21, 22, 33, 45, 0)
s = 199: (0, 37, 42, 35, 55, 27, 19, 20, 22, 24, 23, 0)
s = 200: (0, 24, 41, 32, 71, 41, 13, 32, 26, 22, 50, 0)
************************************************************************
ES/LS-VALUES:
jobnr.   ES(i)    LS(i)
------------------------------------------------------------------------
  0        0        0
  1        0       71
  2        0       45
  3        0       49
  4       11       57
  5       11       57
  6        7       81
  7       24       71
  8       31       85
  9       24       80
 10       31       79
 11       40       89
************************************************************************
BIG-M-VALUES:
M1 = 54, M2 = 187
************************************************************************
